# Objective value = 385
E 385
Q(1,9) 0
Q(1,25) 1
Q(2,8) 0
Q(2,14) 0
Q(2,16) 0
Q(2,17) 0
Q(2,22) 0
Q(2,24) 1
Q(3,13) 0
Q(3,15) 0
Q(3,17) 0
Q(3,18) 0
Q(3,22) 0
Q(3,23) 1
Q(4,17) 0
Q(4,22) 1
Q(5,14) 0
Q(5,16) 0
Q(5,17) 0
Q(5,22) 0
Q(5,24) 0
Q(8,19) 1
Q(8,25) 0
Q(10,25) 0
Q(11,21) 0
Q(18,25) 0
F(1,9) 0
F(1,25) 1
F(2,8) 0
F(2,14) 0
F(2,16) 0
F(2,17) 0
F(2,22) 0
F(2,24) 0
F(3,13) 0
F(3,15) 0
F(3,17) 0
F(3,18) 0
F(3,22) 0
F(3,23) 0
F(4,17) 0
F(4,22) 0
F(5,14) 0
F(5,16) 0
F(5,17) 0
F(5,22) 0
F(5,24) 0
F(8,19) 0
F(8,25) 0
F(10,25) 0
F(11,21) 0
F(18,25) 0
L(2,8) 0
L(2,14) 0
L(2,16) 0
L(2,17) 0
L(2,22) 0
L(2,24) 0
L(3,13) 0
L(3,15) 0
L(3,17) 0
L(3,18) 0
L(3,22) 0
L(3,23) 0
L(4,17) 0
L(4,22) 1
L(5,14) 0
L(5,16) 0
L(5,17) 0
L(5,22) 0
L(5,24) 0
L(8,19) 1
L(11,21) 0
H(1,5) 0
H(1,6) 0
H(1,9) 0
H(1,11) 0
H(2,8) 0
H(2,12) 0
H(2,14) 0
H(2,16) 0
H(2,17) 0
H(3,7) 0
H(3,8) 0
H(3,10) 0
H(3,12) 0
H(3,13) 0
H(3,14) 0
H(3,15) 0
H(3,16) 0
H(3,17) 0
H(3,18) 0
H(4,8) 0
H(4,12) 0
H(4,14) 0
H(4,16) 0
H(4,17) 0
H(5,12) 0
H(5,14) 0
H(5,16) 0
H(5,17) 0
H(5,21) 0
H(6,10) 0
H(6,12) 0
H(6,13) 0
H(6,14) 0
H(6,15) 0
H(6,16) 0
H(6,17) 0
H(6,18) 0
H(6,21) 0
H(6,22) 0
H(8,19) 0
H(8,20) 0
H(9,13) 0
H(9,14) 0
H(9,15) 0
H(9,16) 0
H(9,17) 0
H(9,18) 1
H(9,21) 0
H(9,22) 0
H(9,23) 0
H(9,24) 0
H(10,25) 0
H(11,16) 0
H(11,17) 0
H(11,21) 0
H(11,22) 0
H(11,24) 0
H(12,19) 0
H(12,20) 0
H(12,25) 0
H(13,25) 0
H(14,19) 0
H(14,20) 0
H(14,25) 0
H(15,25) 0
H(16,20) 0
H(16,25) 0
H(17,25) 0
H(18,25) 0
H(19,24) 0
H(20,24) 0
I(1,3,7,9) 0
I(1,3,7,11) 0
I(1,3,8,11) 0
I(1,3,13,19) 0
I(1,3,14,19) 0
I(1,3,14,20) 0
I(1,3,15,19) 0
I(1,3,15,20) 0
I(1,3,16,19) 0
I(1,3,16,20) 0
I(1,3,17,19) 0
I(1,3,17,20) 0
I(1,3,18,20) 0
I(1,3,21,25) 0
I(1,3,22,25) 0
I(1,4,8,11) 0
I(1,4,14,19) 0
I(1,4,14,20) 0
I(1,4,16,19) 0
I(1,4,16,20) 0
I(1,4,17,19) 0
I(1,4,17,20) 0
I(1,4,21,25) 0
I(1,4,22,25) 0
I(1,5,14,19) 0
I(1,5,14,20) 0
I(1,5,16,19) 0
I(1,5,16,20) 0
I(1,5,17,19) 0
I(1,5,17,20) 0
I(1,5,21,25) 0
I(1,5,22,25) 0
I(1,6,13,19) 0
I(1,6,14,19) 0
I(1,6,14,20) 0
I(1,6,15,19) 0
I(1,6,15,20) 0
I(1,6,16,19) 0
I(1,6,16,20) 0
I(1,6,17,19) 0
I(1,6,17,20) 0
I(1,6,18,20) 0
I(1,6,21,25) 0
I(1,6,22,25) 0
I(2,4,8,12) 0
I(2,4,8,14) 0
I(2,4,12,14) 0
I(2,4,12,16) 0
I(2,4,12,17) 0
I(2,4,14,16) 0
I(2,4,14,17) 0
I(2,4,16,21) 0
I(2,4,16,22) 0
I(2,4,17,21) 0
I(2,4,17,22) 0
I(2,4,21,24) 0
I(2,4,22,24) 0
I(2,5,12,14) 0
I(2,5,12,16) 0
I(2,5,12,17) 0
I(2,5,14,16) 0
I(2,5,14,17) 0
I(2,5,16,21) 0
I(2,5,16,22) 0
I(2,5,17,21) 0
I(2,5,17,22) 0
I(2,5,21,24) 0
I(2,5,22,24) 0
I(2,6,10,12) 0
I(2,6,10,14) 0
I(2,6,10,16) 0
I(2,6,12,14) 0
I(2,6,12,16) 0
I(2,6,12,17) 0
I(2,6,13,16) 0
I(2,6,13,17) 0
I(2,6,14,16) 0
I(2,6,14,17) 0
I(2,6,15,17) 0
I(2,6,15,21) 0
I(2,6,16,21) 0
I(2,6,16,22) 0
I(2,6,17,21) 0
I(2,6,17,22) 0
I(2,6,18,21) 0
I(2,6,18,22) 0
I(2,6,18,24) 0
I(2,6,21,24) 0
I(2,6,22,24) 0
I(2,8,19,21) 0
I(2,8,19,22) 0
I(2,8,19,24) 0
I(2,8,20,22) 0
I(2,8,20,24) 0
I(3,5,12,14) 0
I(3,5,12,15) 0
I(3,5,12,16) 0
I(3,5,12,17) 0
I(3,5,12,18) 0
I(3,5,14,16) 0
I(3,5,14,17) 0
I(3,5,14,18) 0
I(3,5,16,18) 0
I(3,5,16,21) 0
I(3,5,16,22) 0
I(3,5,17,21) 0
I(3,5,17,22) 0
I(3,5,17,23) 0
I(3,5,21,23) 0
I(3,5,21,24) 0
I(3,5,22,24) 0
I(3,6,10,12) 0
I(3,6,10,13) 0
I(3,6,10,14) 0
I(3,6,10,15) 0
I(3,6,10,16) 0
I(3,6,12,14) 0
I(3,6,12,15) 0
I(3,6,12,16) 0
I(3,6,12,17) 0
I(3,6,12,18) 0
I(3,6,13,15) 0
I(3,6,13,16) 0
I(3,6,13,17) 0
I(3,6,13,18) 0
I(3,6,14,16) 0
I(3,6,14,17) 0
I(3,6,14,18) 0
I(3,6,15,17) 0
I(3,6,15,18) 0
I(3,6,15,21) 0
I(3,6,16,18) 0
I(3,6,16,21) 0
I(3,6,16,22) 0
I(3,6,17,21) 0
I(3,6,17,22) 0
I(3,6,17,23) 0
I(3,6,18,21) 0
I(3,6,18,22) 0
I(3,6,18,23) 0
I(3,6,18,24) 0
I(3,6,21,23) 0
I(3,6,21,24) 0
I(3,6,22,24) 0
I(3,8,19,21) 0
I(3,8,19,22) 0
I(3,8,19,23) 0
I(3,8,19,24) 0
I(3,8,20,22) 0
I(3,8,20,23) 0
I(3,8,20,24) 0
I(3,9,13,15) 0
I(3,9,13,16) 0
I(3,9,13,17) 0
I(3,9,13,18) 0
I(3,9,14,16) 0
I(3,9,14,17) 0
I(3,9,14,18) 0
I(3,9,15,17) 0
I(3,9,15,18) 0
I(3,9,15,21) 0
I(3,9,16,18) 0
I(3,9,16,21) 0
I(3,9,16,22) 0
I(3,9,17,21) 0
I(3,9,17,22) 0
I(3,9,17,23) 0
I(3,9,18,21) 0
I(3,9,18,22) 0
I(3,9,18,23) 0
I(3,9,18,24) 0
I(3,9,21,23) 0
I(3,9,21,24) 0
I(3,9,22,24) 0
I(4,6,10,12) 0
I(4,6,10,14) 0
I(4,6,10,16) 0
I(4,6,12,14) 0
I(4,6,12,16) 0
I(4,6,12,17) 0
I(4,6,13,16) 0
I(4,6,13,17) 0
I(4,6,14,16) 0
I(4,6,14,17) 0
I(4,6,15,17) 0
I(4,6,15,21) 0
I(4,6,16,21) 0
I(4,6,16,22) 0
I(4,6,17,21) 0
I(4,6,17,22) 0
I(4,6,18,21) 0
I(4,6,18,22) 0
I(4,6,18,24) 0
I(4,6,21,24) 0
I(4,6,22,24) 0
I(4,8,19,21) 0
I(4,8,19,22) 0
I(4,8,19,24) 0
I(4,8,20,22) 0
I(4,8,20,24) 0
I(4,9,13,16) 0
I(4,9,13,17) 0
I(4,9,14,16) 0
I(4,9,14,17) 0
I(4,9,15,17) 0
I(4,9,15,21) 0
I(4,9,16,21) 0
I(4,9,16,22) 0
I(4,9,17,21) 0
I(4,9,17,22) 0
I(4,9,18,21) 0
I(4,9,18,22) 0
I(4,9,18,24) 0
I(4,9,21,24) 0
I(4,9,22,24) 0
I(5,8,19,21) 1
I(5,8,19,22) 0
I(5,8,19,24) 0
I(5,8,20,22) 0
I(5,8,20,24) 0
I(5,9,13,16) 0
I(5,9,13,17) 0
I(5,9,14,16) 0
I(5,9,14,17) 0
I(5,9,15,17) 0
I(5,9,15,21) 0
I(5,9,16,21) 0
I(5,9,16,22) 0
I(5,9,17,21) 0
I(5,9,17,22) 0
I(5,9,18,21) 0
I(5,9,18,22) 0
I(5,9,18,24) 0
I(5,9,21,24) 0
I(5,9,22,24) 0
I(5,11,16,21) 0
I(5,11,16,22) 0
I(5,11,17,21) 0
I(5,11,17,22) 0
I(5,11,21,24) 0
I(5,11,22,24) 0
I(6,8,19,21) 0
I(6,8,19,22) 0
I(6,8,19,23) 0
I(6,8,19,24) 0
I(6,8,20,22) 0
I(6,8,20,23) 0
I(6,8,20,24) 0
I(6,9,13,15) 0
I(6,9,13,16) 0
I(6,9,13,17) 0
I(6,9,13,18) 0
I(6,9,14,16) 0
I(6,9,14,17) 0
I(6,9,14,18) 0
I(6,9,15,17) 0
I(6,9,15,18) 0
I(6,9,15,21) 0
I(6,9,16,18) 0
I(6,9,16,21) 0
I(6,9,16,22) 0
I(6,9,17,21) 0
I(6,9,17,22) 0
I(6,9,17,23) 0
I(6,9,18,21) 0
I(6,9,18,22) 0
I(6,9,18,23) 0
I(6,9,18,24) 0
I(6,9,21,23) 0
I(6,9,21,24) 0
I(6,9,22,24) 0
I(6,11,16,18) 0
I(6,11,16,21) 0
I(6,11,16,22) 0
I(6,11,17,21) 0
I(6,11,17,22) 0
I(6,11,17,23) 0
I(6,11,21,23) 0
I(6,11,21,24) 0
I(6,11,22,24) 0
I(6,12,19,21) 0
I(6,12,19,22) 0
I(6,12,19,23) 0
I(6,12,19,24) 0
I(6,12,20,22) 0
I(6,12,20,23) 0
I(6,12,20,24) 0
I(7,9,21,25) 0
I(7,9,22,25) 0
I(7,11,21,25) 0
I(7,11,22,25) 0
I(7,12,19,25) 0
I(7,12,20,25) 0
I(8,11,16,19) 0
I(8,11,16,20) 0
I(8,11,17,19) 0
I(8,11,17,20) 0
I(8,11,21,25) 0
I(8,11,22,25) 0
I(8,12,19,25) 0
I(8,12,20,25) 0
I(8,14,19,25) 0
I(8,14,20,25) 0
I(9,11,16,18) 0
I(9,11,16,21) 0
I(9,11,16,22) 0
I(9,11,17,21) 0
I(9,11,17,22) 0
I(9,11,17,23) 0
I(9,11,21,23) 0
I(9,11,21,24) 0
I(9,11,22,24) 0
I(9,12,19,21) 0
I(9,12,19,22) 0
I(9,12,19,23) 0
I(9,12,19,24) 0
I(9,12,20,22) 0
I(9,12,20,23) 0
I(9,12,20,24) 0
I(9,14,19,21) 0
I(9,14,19,22) 0
I(9,14,19,23) 0
I(9,14,19,24) 0
I(9,14,20,22) 0
I(9,14,20,23) 0
I(9,14,20,24) 0
I(10,12,19,25) 0
I(10,12,20,25) 0
I(10,14,19,25) 0
I(10,14,20,25) 0
I(10,16,20,25) 0
I(11,14,19,21) 0
I(11,14,19,22) 0
I(11,14,19,24) 0
I(11,14,20,22) 0
I(11,14,20,24) 0
I(11,16,20,22) 0
I(11,16,20,24) 0
I(12,14,19,25) 0
I(12,14,20,25) 0
I(12,16,20,25) 0
I(13,16,20,25) 0
I(14,16,20,25) 0
B(1,2,8,11) 0
B(1,2,14,19) 0
B(1,2,14,20) 0
B(1,2,16,19) 0
B(1,2,16,20) 0
B(1,2,17,19) 0
B(1,2,17,20) 0
B(2,3,7,12) 0
B(2,3,8,12) 0
B(2,3,8,14) 0
B(2,3,10,12) 0
B(2,3,10,14) 0
B(2,3,10,16) 0
B(2,3,12,14) 0
B(2,3,12,16) 0
B(2,3,12,17) 0
B(2,3,13,16) 0
B(2,3,13,17) 0
B(2,3,14,16) 0
B(2,3,14,17) 0
B(2,3,15,17) 0
B(2,3,15,21) 0
B(2,3,16,21) 0
B(2,3,16,22) 0
B(2,3,17,21) 0
B(2,3,17,22) 0
B(2,3,18,21) 0
B(2,3,18,22) 0
B(3,4,8,10) 0
B(3,4,8,12) 0
B(3,4,8,13) 0
B(3,4,8,14) 0
B(3,4,12,14) 0
B(3,4,12,15) 0
B(3,4,12,16) 0
B(3,4,12,17) 0
B(3,4,12,18) 0
B(3,4,14,16) 0
B(3,4,14,17) 0
B(3,4,14,18) 0
B(3,4,16,18) 0
B(3,4,16,21) 0
B(3,4,16,22) 0
B(3,4,17,21) 0
B(3,4,17,22) 0
B(3,4,17,23) 0
B(3,4,21,23) 0
B(4,5,12,14) 0
B(4,5,12,16) 0
B(4,5,12,17) 0
B(4,5,14,16) 0
B(4,5,14,17) 0
B(4,5,16,21) 0
B(4,5,16,22) 0
B(4,5,17,21) 0
B(4,5,17,22) 0
B(5,6,10,12) 0
B(5,6,10,14) 0
B(5,6,10,16) 0
B(5,6,12,14) 0
B(5,6,12,16) 0
B(5,6,12,17) 0
B(5,6,13,16) 0
B(5,6,13,17) 0
B(5,6,14,16) 0
B(5,6,14,17) 0
B(5,6,15,17) 0
B(5,6,15,21) 0
B(5,6,16,21) 0
B(5,6,16,22) 0
B(5,6,17,21) 0
B(5,6,17,22) 0
B(5,6,18,21) 0
B(5,6,18,22) 0
B(8,9,13,19) 0
B(8,9,14,19) 0
B(8,9,14,20) 0
B(8,9,15,19) 0
B(8,9,15,20) 0
B(8,9,16,19) 0
B(8,9,16,20) 0
B(8,9,17,19) 0
B(8,9,17,20) 0
B(8,9,18,20) 0
B(11,12,19,21) 0
B(11,12,19,22) 0
B(11,12,20,22) 0
B(3,6,12,13) 0
B(3,5,12,13) 0
B(6,9,13,14) 0
B(5,9,13,14) 0
B(4,9,13,14) 0
B(3,9,13,14) 0
B(4,6,13,14) 0
B(3,6,13,14) 0
B(2,6,13,14) 0
B(6,9,14,15) 0
B(3,9,14,15) 0
B(3,6,14,15) 0
B(3,5,14,15) 0
B(6,9,15,16) 0
B(5,9,15,16) 0
B(4,9,15,16) 0
B(3,9,15,16) 0
B(4,6,15,16) 0
B(3,6,15,16) 0
B(2,6,15,16) 0
B(9,11,16,17) 0
B(6,11,16,17) 0
B(5,11,16,17) 0
B(6,9,16,17) 0
B(5,9,16,17) 0
B(4,9,16,17) 0
B(3,9,16,17) 0
B(4,6,16,17) 0
B(3,6,16,17) 0
B(2,6,16,17) 0
B(3,5,16,17) 0
B(2,5,16,17) 0
B(9,11,17,18) 0
B(6,11,17,18) 0
B(6,9,17,18) 0
B(3,9,17,18) 0
B(3,6,17,18) 0
B(3,5,17,18) 0
B(12,14,19,20) 0
B(8,14,19,20) 0
B(8,12,19,20) 0
B(11,16,20,21) 0
B(11,14,20,21) 0
B(9,14,20,21) 0
B(9,12,20,21) 0
B(6,12,20,21) 0
B(6,8,20,21) 0
B(5,8,20,21) 0
B(4,8,20,21) 0
B(3,8,20,21) 0
B(2,8,20,21) 0
B(9,11,21,22) 0
B(6,11,21,22) 0
B(5,11,21,22) 0
B(6,9,21,22) 0
B(5,9,21,22) 0
B(4,9,21,22) 0
B(3,9,21,22) 0
B(4,6,21,22) 0
B(3,6,21,22) 0
B(2,6,21,22) 0
B(3,5,21,22) 0
B(2,5,21,22) 0
B(9,11,22,23) 0
B(6,11,22,23) 0
B(6,9,22,23) 0
B(3,9,22,23) 0
B(3,6,22,23) 0
B(3,5,22,23) 0
P(1,5) 0
P(1,6) 0
P(1,9) 0
P(1,11) 0
P(1,19) 0
P(1,20) 0
P(1,25) 1
P(2,8) 0
P(2,12) 0
P(2,14) 0
P(2,16) 0
P(2,17) 0
P(2,21) 0
P(2,22) 0
P(2,24) 1
P(3,7) 0
P(3,8) 0
P(3,10) 0
P(3,12) 0
P(3,13) 0
P(3,14) 0
P(3,15) 0
P(3,16) 0
P(3,17) 0
P(3,18) 0
P(3,21) 0
P(3,22) 0
P(3,23) 1
P(3,24) 0
P(4,8) 0
P(4,12) 0
P(4,14) 0
P(4,16) 0
P(4,17) 0
P(4,21) 0
P(4,22) 1
P(4,24) 0
P(5,12) 0
P(5,14) 0
P(5,16) 0
P(5,17) 0
P(5,21) 1
P(5,22) 0
P(5,24) 0
P(6,10) 0
P(6,12) 0
P(6,13) 0
P(6,14) 0
P(6,15) 0
P(6,16) 0
P(6,17) 0
P(6,18) 0
P(6,21) 0
P(6,22) 0
P(6,23) 0
P(6,24) 0
P(7,25) 0
P(8,19) 1
P(8,20) 0
P(8,25) 0
P(9,13) 0
P(9,14) 0
P(9,15) 0
P(9,16) 0
P(9,17) 0
P(9,18) 1
P(9,21) 0
P(9,22) 0
P(9,23) 0
P(9,24) 0
P(10,25) 0
P(11,16) 0
P(11,17) 0
P(11,21) 0
P(11,22) 0
P(11,24) 0
P(12,19) 0
P(12,20) 0
P(12,25) 0
P(13,25) 0
P(14,19) 0
P(14,20) 0
P(14,25) 0
P(15,25) 0
P(16,20) 0
P(16,25) 0
P(17,25) 0
P(18,25) 0
P(19,24) 0
P(20,24) 0
P(21,25) 0
Q(1,5) 0
Q(1,6) 0
Q(1,11) 0
Q(1,19) 0
Q(1,20) 0
Q(2,12) 0
Q(2,21) 0
Q(3,7) 0
Q(3,8) 0
Q(3,10) 0
Q(3,12) 0
Q(3,14) 0
Q(3,16) 0
Q(3,21) 0
Q(3,24) 0
Q(4,8) 0
Q(4,12) 0
Q(4,14) 0
Q(4,16) 0
Q(4,21) 0
Q(4,24) 0
Q(5,12) 0
Q(5,21) 0
Q(6,10) 0
Q(6,12) 0
Q(6,13) 0
Q(6,14) 0
Q(6,15) 0
Q(6,16) 0
Q(6,17) 0
Q(6,18) 0
Q(6,21) 0
Q(6,22) 0
Q(6,23) 0
Q(6,24) 0
Q(7,25) 0
Q(8,20) 0
Q(9,13) 0
Q(9,14) 0
Q(9,15) 0
Q(9,16) 0
Q(9,17) 0
Q(9,18) 0
Q(9,21) 0
Q(9,22) 0
Q(9,23) 0
Q(9,24) 0
Q(11,16) 0
Q(11,17) 0
Q(11,22) 0
Q(11,24) 0
Q(12,19) 0
Q(12,20) 0
Q(12,25) 0
Q(13,25) 0
Q(14,19) 0
Q(14,20) 0
Q(14,25) 0
Q(15,25) 0
Q(16,20) 0
Q(16,25) 0
Q(17,25) 0
Q(19,24) 0
Q(20,24) 0
Q(21,25) 0
F(1,5) 0
F(1,6) 0
F(1,7) 0
F(1,8) 0
F(1,10) 0
F(1,11) 0
F(1,12) 0
F(1,13) 0
F(1,14) 0
F(1,15) 0
F(1,16) 0
F(1,17) 0
F(1,18) 0
F(1,19) 0
F(1,20) 0
F(1,21) 0
F(1,22) 0
F(1,23) 0
F(1,24) 0
F(2,6) 0
F(2,7) 0
F(2,9) 0
F(2,10) 0
F(2,11) 0
F(2,12) 0
F(2,13) 0
F(2,15) 0
F(2,18) 0
F(2,19) 0
F(2,20) 0
F(2,21) 0
F(2,23) 0
F(2,25) 0
F(3,7) 0
F(3,8) 0
F(3,9) 0
F(3,10) 0
F(3,11) 0
F(3,12) 0
F(3,14) 0
F(3,16) 0
F(3,19) 0
F(3,20) 0
F(3,21) 0
F(3,24) 0
F(3,25) 0
F(4,8) 0
F(4,9) 0
F(4,10) 0
F(4,11) 0
F(4,12) 0
F(4,13) 0
F(4,14) 0
F(4,15) 0
F(4,16) 0
F(4,18) 0
F(4,19) 0
F(4,20) 0
F(4,21) 0
F(4,23) 0
F(4,24) 0
F(4,25) 0
F(5,9) 0
F(5,10) 0
F(5,11) 0
F(5,12) 0
F(5,13) 0
F(5,15) 0
F(5,18) 0
F(5,19) 0
F(5,20) 0
F(5,21) 0
F(5,23) 0
F(5,25) 0
F(6,10) 0
F(6,11) 0
F(6,12) 0
F(6,13) 0
F(6,14) 0
F(6,15) 0
F(6,16) 0
F(6,17) 0
F(6,18) 0
F(6,19) 0
F(6,20) 0
F(6,21) 0
F(6,22) 0
F(6,23) 0
F(6,24) 0
F(6,25) 0
F(7,11) 0
F(7,12) 0
F(7,13) 0
F(7,14) 0
F(7,15) 0
F(7,16) 0
F(7,17) 0
F(7,18) 0
F(7,19) 0
F(7,20) 0
F(7,21) 0
F(7,22) 0
F(7,23) 0
F(7,24) 0
F(7,25) 0
F(8,12) 0
F(8,13) 0
F(8,14) 0
F(8,15) 0
F(8,16) 0
F(8,17) 0
F(8,18) 0
F(8,20) 0
F(8,21) 0
F(8,22) 0
F(8,23) 0
F(8,24) 0
F(9,13) 0
F(9,14) 0
F(9,15) 0
F(9,16) 0
F(9,17) 0
F(9,18) 0
F(9,19) 0
F(9,20) 0
F(9,21) 0
F(9,22) 0
F(9,23) 0
F(9,24) 0
F(9,25) 0
F(10,14) 0
F(10,15) 0
F(10,16) 0
F(10,17) 0
F(10,18) 0
F(10,19) 0
F(10,20) 0
F(10,21) 0
F(10,22) 0
F(10,23) 0
F(10,24) 0
F(11,15) 0
F(11,16) 0
F(11,17) 0
F(11,18) 0
F(11,19) 0
F(11,20) 0
F(11,22) 0
F(11,23) 0
F(11,24) 0
F(11,25) 0
F(12,16) 0
F(12,17) 0
F(12,18) 0
F(12,19) 0
F(12,20) 0
F(12,21) 0
F(12,22) 0
F(12,23) 0
F(12,24) 0
F(12,25) 0
F(13,17) 0
F(13,18) 0
F(13,19) 0
F(13,20) 0
F(13,21) 0
F(13,22) 0
F(13,23) 0
F(13,24) 0
F(13,25) 0
F(14,18) 0
F(14,19) 0
F(14,20) 0
F(14,21) 0
F(14,22) 0
F(14,23) 0
F(14,24) 0
F(14,25) 0
F(15,19) 0
F(15,20) 0
F(15,21) 0
F(15,22) 0
F(15,23) 0
F(15,24) 0
F(15,25) 0
F(16,20) 0
F(16,21) 0
F(16,22) 0
F(16,23) 0
F(16,24) 0
F(16,25) 0
F(17,21) 0
F(17,22) 0
F(17,23) 0
F(17,24) 0
F(17,25) 0
F(18,22) 0
F(18,23) 0
F(18,24) 0
F(19,23) 0
F(19,24) 0
F(19,25) 0
F(20,24) 0
F(20,25) 0
F(21,25) 0
L(1,5) 0
L(1,6) 0
L(1,7) 0
L(1,8) 0
L(1,9) 0
L(1,10) 0
L(1,11) 0
L(1,12) 0
L(1,13) 0
L(1,14) 0
L(1,15) 0
L(1,16) 0
L(1,17) 0
L(1,18) 0
L(1,19) 0
L(1,20) 0
L(1,21) 0
L(1,22) 0
L(1,23) 0
L(1,24) 0
L(1,25) 0
L(2,6) 0
L(2,7) 0
L(2,9) 0
L(2,10) 0
L(2,11) 0
L(2,12) 0
L(2,13) 0
L(2,15) 0
L(2,18) 0
L(2,19) 0
L(2,20) 0
L(2,21) 0
L(2,23) 0
L(2,25) 0
L(3,7) 0
L(3,8) 0
L(3,9) 0
L(3,10) 0
L(3,11) 0
L(3,12) 0
L(3,14) 0
L(3,16) 0
L(3,19) 0
L(3,20) 0
L(3,21) 0
L(3,24) 0
L(3,25) 0
L(4,8) 0
L(4,9) 0
L(4,10) 0
L(4,11) 0
L(4,12) 0
L(4,13) 0
L(4,14) 0
L(4,15) 0
L(4,16) 0
L(4,18) 0
L(4,19) 0
L(4,20) 0
L(4,21) 0
L(4,23) 0
L(4,24) 0
L(4,25) 0
L(5,9) 0
L(5,10) 0
L(5,11) 0
L(5,12) 0
L(5,13) 0
L(5,15) 0
L(5,18) 0
L(5,19) 0
L(5,20) 0
L(5,21) 0
L(5,23) 0
L(5,25) 0
L(6,10) 0
L(6,11) 0
L(6,12) 0
L(6,13) 0
L(6,14) 0
L(6,15) 0
L(6,16) 0
L(6,17) 0
L(6,18) 0
L(6,19) 0
L(6,20) 0
L(6,21) 0
L(6,22) 0
L(6,23) 0
L(6,24) 0
L(6,25) 0
L(7,11) 0
L(7,12) 0
L(7,13) 0
L(7,14) 0
L(7,15) 0
L(7,16) 0
L(7,17) 0
L(7,18) 0
L(7,19) 0
L(7,20) 0
L(7,21) 0
L(7,22) 0
L(7,23) 0
L(7,24) 0
L(7,25) 0
L(8,12) 0
L(8,13) 0
L(8,14) 0
L(8,15) 0
L(8,16) 0
L(8,17) 0
L(8,18) 0
L(8,20) 0
L(8,21) 0
L(8,22) 0
L(8,23) 0
L(8,24) 0
L(8,25) 0
L(9,13) 0
L(9,14) 0
L(9,15) 0
L(9,16) 0
L(9,17) 0
L(9,18) 0
L(9,19) 0
L(9,20) 0
L(9,21) 0
L(9,22) 0
L(9,23) 0
L(9,24) 0
L(9,25) 0
L(10,14) 0
L(10,15) 0
L(10,16) 0
L(10,17) 0
L(10,18) 0
L(10,19) 0
L(10,20) 0
L(10,21) 0
L(10,22) 0
L(10,23) 0
L(10,24) 0
L(10,25) 0
L(11,15) 0
L(11,16) 0
L(11,17) 0
L(11,18) 0
L(11,19) 0
L(11,20) 0
L(11,22) 0
L(11,23) 0
L(11,24) 0
L(11,25) 0
L(12,16) 0
L(12,17) 0
L(12,18) 0
L(12,19) 0
L(12,20) 0
L(12,21) 0
L(12,22) 0
L(12,23) 0
L(12,24) 0
L(12,25) 0
L(13,17) 0
L(13,18) 0
L(13,19) 0
L(13,20) 0
L(13,21) 0
L(13,22) 0
L(13,23) 0
L(13,24) 0
L(13,25) 0
L(14,18) 0
L(14,19) 0
L(14,20) 0
L(14,21) 0
L(14,22) 0
L(14,23) 0
L(14,24) 0
L(14,25) 0
L(15,19) 0
L(15,20) 0
L(15,21) 0
L(15,22) 0
L(15,23) 0
L(15,24) 0
L(15,25) 0
L(16,20) 0
L(16,21) 0
L(16,22) 0
L(16,23) 0
L(16,24) 0
L(16,25) 0
L(17,21) 0
L(17,22) 0
L(17,23) 0
L(17,24) 0
L(17,25) 0
L(18,22) 0
L(18,23) 0
L(18,24) 0
L(18,25) 0
L(19,23) 0
L(19,24) 0
L(19,25) 0
L(20,24) 0
L(20,25) 0
L(21,25) 0
H(21,25) 0
X(2) 0
X(3) 0
X(4) 0
X(5) 0
X(6) 1
X(7) 1
X(8) 0
X(9) 0
X(10) 1
X(11) 1
X(12) 1
X(13) 1
X(14) 1
X(15) 1
X(16) 1
X(17) 1
X(18) 1
X(19) 0
X(20) 1
X(21) 0
X(22) 0
X(23) 0
X(24) 0
X(1) 1
X(25) 0
Y(2) 0
Y(8) 0
Y(9) 0
Y(10) 1
Y(14) 1
Y(15) 1
Y(16) 1
Y(17) 1
Y(18) 0
Y(19) 0
Y(22) 0
Y(23) 0
Y(24) 0
Y(3) 0
Y(4) 0
Y(5) 0
Y(11) 1
Y(12) 1
Y(13) 1
Y(20) 1
Y(21) 0
Y(6) 1
Y(7) 1
Y(1) 1
Y(25) 0
Z(9) 0
Z(10) 1
Z(15) 1
Z(16) 1
Z(17) 1
Z(18) 0
Z(19) 0
Z(8) 0
Z(11) 1
Z(12) 1
Z(13) 1
Z(14) 1
Z(20) 1
Z(21) 0
Z(22) 0
Z(4) 0
Z(5) 0
Z(7) 1
Z(6) 1
Z(3) 0
Z(1) 1
Z(2) 1
Z(23) 1
Z(24) 1
Z(25) 0
Q(1,13) 0
Q(1,15) 0
Q(1,17) 0
Q(1,18) 0
Q(1,22) 0
Q(1,23) 0
Q(2,9) 0
Q(2,11) 0
Q(2,13) 0
Q(2,15) 0
Q(2,18) 0
Q(2,19) 0
Q(2,23) 0
Q(2,25) 0
Q(3,9) 0
Q(3,25) 0
Q(4,9) 0
Q(4,13) 0
Q(4,15) 0
Q(4,18) 0
Q(4,23) 0
Q(4,25) 0
Q(5,9) 0
Q(5,11) 0
Q(5,13) 0
Q(5,15) 0
Q(5,18) 0
Q(5,19) 0
Q(5,23) 0
Q(5,25) 0
Q(7,12) 0
Q(7,20) 0
Q(7,21) 0
Q(8,13) 0
Q(8,14) 0
Q(8,15) 0
Q(8,16) 0
Q(8,17) 0
Q(8,18) 0
Q(8,22) 0
Q(8,23) 0
Q(8,24) 0
Q(10,15) 0
Q(10,17) 0
Q(10,18) 0
Q(10,22) 0
Q(10,23) 0
Q(11,20) 0
Q(13,20) 0
Q(13,21) 0
Q(15,20) 0
Q(15,21) 0
Q(16,21) 0
Q(18,22) 0
Q(18,23) 0
Q(19,23) 0
Q(19,25) 0
